NAME : bva2144
COMMENT : Bonn VLSI data set with 2144 points
COMMENT : Uni Bonn, Research Institute for Discrete Math
COMMENT : Contributed by Andre Rohe
TYPE : TSP
DIMENSION : 2144
EDGE_WEIGHT_TYPE : EUC_2D
NODE_COORD_SECTION
1 0 102
2 0 103
3 0 107
4 0 111
5 0 115
6 0 119
7 0 121
8 0 123
9 0 13
10 0 17
11 0 21
12 0 23
13 0 25
14 0 27
15 0 29
16 0 31
17 0 33
18 0 39
19 0 43
20 0 47
21 0 49
22 0 5
23 0 51
24 0 55
25 0 63
26 0 64
27 0 67
28 0 68
29 0 69
30 0 71
31 0 72
32 0 75
33 0 76
34 0 79
35 0 80
36 0 83
37 0 87
38 0 9
39 0 91
40 0 95
41 0 99
42 2 0
43 2 10
44 2 100
45 2 104
46 2 11
47 2 112
48 2 113
49 2 114
50 2 115
51 2 12
52 2 13
53 2 14
54 2 16
55 2 18
56 2 19
57 2 20
58 2 22
59 2 24
60 2 26
61 2 31
62 2 33
63 2 34
64 2 36
65 2 37
66 2 42
67 2 44
68 2 46
69 2 48
70 2 50
71 2 51
72 2 56
73 2 58
74 2 64
75 2 65
76 2 66
77 2 68
78 2 70
79 2 71
80 2 74
81 2 75
82 2 76
83 2 78
84 2 80
85 2 82
86 2 87
87 2 96
88 2 98
89 5 101
90 5 104
91 5 106
92 5 110
93 5 119
94 5 123
95 5 17
96 5 23
97 5 26
98 5 29
99 5 33
100 5 36
101 5 40
102 5 45
103 5 47
104 5 52
105 5 54
106 5 58
107 5 62
108 5 70
109 5 72
110 5 79
111 5 8
112 5 87
113 8 48
114 8 80
115 8 83
116 8 89
117 9 24
118 9 31
119 9 34
120 9 37
121 9 48
122 9 56
123 9 68
124 9 80
125 9 83
126 9 89
127 10 100
128 10 103
129 10 16
130 10 22
131 10 24
132 10 31
133 10 34
134 10 37
135 10 44
136 10 46
137 10 49
138 10 51
139 10 56
140 10 68
141 10 71
142 10 78
143 10 81
144 10 83
145 10 89
146 11 100
147 11 103
148 11 117
149 11 16
150 11 22
151 11 24
152 11 27
153 11 31
154 11 34
155 11 37
156 11 44
157 11 46
158 11 48
159 11 51
160 11 53
161 11 56
162 11 68
163 11 71
164 11 78
165 11 80
166 11 83
167 11 90
168 11 92
169 12 107
170 12 37
171 12 5
172 12 59
173 12 83
174 14 0
175 15 0
176 15 101
177 15 104
178 15 106
179 15 110
180 15 17
181 15 23
182 15 40
183 15 45
184 15 47
185 15 50
186 15 52
187 15 54
188 15 62
189 15 72
190 15 79
191 15 8
192 15 82
193 16 0
194 17 0
195 17 11
196 17 113
197 17 114
198 17 115
199 17 12
200 17 13
201 17 14
202 17 19
203 17 20
204 17 42
205 17 65
206 17 66
207 17 75
208 17 76
209 18 0
210 18 38
211 18 39
212 18 84
213 18 85
214 18 87
215 18 89
216 19 0
217 20 0
218 21 0
219 25 10
220 25 104
221 25 106
222 25 108
223 25 11
224 25 110
225 25 112
226 25 114
227 25 117
228 25 12
229 25 16
230 25 18
231 25 19
232 25 21
233 25 22
234 25 24
235 25 25
236 25 27
237 25 29
238 25 31
239 25 33
240 25 34
241 25 36
242 25 37
243 25 39
244 25 41
245 25 43
246 25 45
247 25 59
248 25 61
249 25 63
250 25 65
251 25 66
252 25 69
253 25 70
254 25 71
255 25 73
256 25 75
257 25 77
258 25 78
259 25 79
260 25 80
261 25 83
262 25 84
263 25 85
264 25 86
265 25 92
266 25 94
267 25 96
268 28 101
269 28 105
270 28 109
271 28 113
272 28 121
273 28 13
274 28 18
275 28 21
276 28 24
277 28 27
278 28 33
279 28 36
280 28 39
281 28 41
282 28 45
283 28 49
284 28 54
285 28 56
286 28 60
287 28 63
288 28 7
289 28 74
290 28 77
291 28 97
292 31 10
293 32 10
294 32 103
295 32 16
296 32 19
297 32 22
298 32 25
299 32 31
300 32 34
301 32 37
302 32 43
303 32 46
304 32 61
305 32 75
306 33 10
307 33 103
308 33 16
309 33 19
310 33 22
311 33 25
312 33 31
313 33 34
314 33 37
315 33 40
316 33 43
317 33 46
318 33 59
319 33 61
320 33 73
321 33 75
322 33 96
323 34 10
324 34 103
325 34 119
326 34 16
327 34 19
328 34 22
329 34 25
330 34 31
331 34 34
332 34 37
333 34 40
334 34 43
335 34 46
336 34 5
337 34 53
338 34 59
339 34 61
340 34 73
341 34 75
342 34 88
343 34 96
344 35 0
345 35 46
346 35 98
347 36 0
348 37 0
349 38 0
350 38 101
351 38 13
352 38 41
353 38 49
354 38 54
355 38 56
356 38 60
357 38 74
358 38 97
359 39 0
360 40 117
361 40 29
362 40 65
363 40 70
364 40 71
365 40 79
366 40 80
367 40 83
368 40 84
369 40 85
370 40 86
371 41 47
372 41 48
373 41 50
374 41 51
375 48 10
376 48 104
377 48 106
378 48 108
379 48 110
380 48 112
381 48 114
382 48 12
383 48 121
384 48 16
385 48 18
386 48 19
387 48 21
388 48 22
389 48 24
390 48 25
391 48 27
392 48 32
393 48 33
394 48 34
395 48 36
396 48 40
397 48 44
398 48 46
399 48 48
400 48 6
401 48 62
402 48 64
403 48 67
404 48 68
405 48 72
406 48 73
407 48 76
408 48 77
409 48 78
410 48 83
411 48 85
412 48 88
413 48 92
414 48 93
415 48 94
416 49 70
417 51 102
418 51 105
419 51 109
420 51 113
421 51 12
422 51 14
423 51 18
424 51 21
425 51 24
426 51 27
427 51 31
428 51 37
429 51 41
430 51 46
431 51 88
432 51 98
433 52 0
434 53 0
435 54 0
436 55 10
437 55 103
438 55 16
439 55 19
440 55 22
441 55 25
442 55 44
443 56 10
444 56 103
445 56 16
446 56 19
447 56 22
448 56 25
449 56 36
450 56 40
451 56 44
452 56 47
453 56 87
454 57 10
455 57 103
456 57 13
457 57 16
458 57 19
459 57 22
460 57 25
461 57 36
462 57 40
463 57 44
464 57 47
465 57 58
466 57 87
467 57 96
468 58 28
469 58 99
470 61 102
471 61 14
472 61 31
473 61 37
474 61 41
475 61 88
476 63 33
477 63 34
478 63 6
479 63 67
480 63 73
481 63 76
482 63 83
483 63 85
484 63 93
485 63 94
486 64 121
487 64 71
488 64 77
489 70 0
490 71 0
491 71 10
492 71 100
493 71 102
494 71 104
495 71 106
496 71 107
497 71 110
498 71 111
499 71 114
500 71 12
501 71 120
502 71 13
503 71 15
504 71 16
505 71 18
506 71 19
507 71 21
508 71 22
509 71 24
510 71 25
511 71 27
512 71 32
513 71 36
514 71 40
515 71 41
516 71 42
517 71 44
518 71 46
519 71 47
520 71 48
521 71 54
522 71 56
523 71 6
524 71 65
525 71 67
526 71 72
527 71 74
528 71 76
529 71 94
530 71 96
531 71 98
532 72 0
533 73 0
534 74 0
535 74 100
536 74 102
537 74 107
538 74 111
539 74 12
540 74 15
541 74 18
542 74 21
543 74 24
544 74 27
545 74 29
546 74 33
547 74 37
548 74 45
549 74 51
550 74 55
551 74 61
552 74 71
553 74 74
554 74 76
555 74 81
556 74 87
557 74 90
558 74 94
559 74 96
560 74 98
561 75 0
562 77 104
563 78 10
564 78 104
565 78 107
566 78 111
567 78 13
568 78 16
569 78 19
570 78 22
571 78 25
572 78 53
573 78 72
574 79 10
575 79 105
576 79 109
577 79 113
578 79 13
579 79 16
580 79 19
581 79 22
582 79 25
583 79 32
584 79 36
585 79 44
586 79 53
587 79 72
588 79 75
589 79 78
590 79 93
591 80 10
592 80 104
593 80 13
594 80 16
595 80 19
596 80 22
597 80 25
598 80 28
599 80 32
600 80 36
601 80 44
602 80 50
603 80 53
604 80 69
605 80 72
606 80 75
607 80 88
608 80 93
609 81 58
610 81 78
611 84 100
612 84 102
613 84 106
614 84 110
615 84 114
616 84 128
617 84 29
618 84 33
619 84 37
620 84 45
621 84 51
622 84 61
623 84 76
624 84 81
625 84 87
626 84 94
627 84 96
628 84 98
629 85 128
630 86 128
631 86 41
632 86 42
633 86 47
634 86 48
635 86 6
636 86 65
637 86 67
638 87 120
639 87 128
640 87 79
641 87 82
642 87 85
643 88 128
644 89 0
645 90 0
646 91 0
647 94 10
648 94 100
649 94 101
650 94 103
651 94 105
652 94 111
653 94 13
654 94 15
655 94 16
656 94 18
657 94 19
658 94 21
659 94 22
660 94 24
661 94 33
662 94 35
663 94 41
664 94 46
665 94 6
666 94 72
667 94 73
668 94 77
669 94 78
670 94 81
671 94 82
672 94 83
673 94 88
674 94 90
675 94 92
676 94 94
677 94 95
678 94 96
679 94 98
680 95 128
681 95 75
682 97 102
683 97 104
684 97 106
685 97 108
686 97 11
687 97 115
688 97 118
689 97 122
690 97 15
691 97 18
692 97 21
693 97 24
694 97 28
695 97 42
696 97 47
697 97 51
698 97 56
699 97 64
700 97 66
701 97 69
702 97 93
703 100 39
704 100 52
705 100 58
706 100 98
707 101 13
708 101 16
709 101 19
710 101 22
711 101 39
712 101 98
713 102 10
714 102 101
715 102 103
716 102 105
717 102 13
718 102 16
719 102 19
720 102 22
721 102 92
722 102 99
723 103 10
724 103 101
725 103 103
726 103 105
727 103 107
728 103 113
729 103 116
730 103 13
731 103 16
732 103 19
733 103 22
734 103 29
735 103 50
736 103 65
737 103 68
738 103 92
739 103 98
740 104 25
741 104 52
742 107 0
743 107 100
744 107 102
745 107 104
746 107 106
747 107 108
748 107 11
749 107 28
750 107 42
751 107 47
752 107 51
753 107 66
754 107 69
755 107 93
756 108 0
757 108 128
758 109 0
759 109 111
760 109 6
761 109 72
762 109 78
763 109 81
764 109 88
765 109 90
766 109 95
767 109 96
768 110 0
769 110 56
770 110 63
771 110 76
772 110 82
773 111 0
774 117 10
775 117 101
776 117 102
777 117 105
778 117 12
779 117 121
780 117 13
781 117 15
782 117 17
783 117 42
784 117 44
785 117 63
786 117 65
787 117 68
788 117 70
789 117 78
790 117 81
791 117 83
792 117 88
793 117 89
794 117 90
795 117 92
796 117 94
797 117 95
798 117 97
799 117 98
800 117 99
801 120 12
802 120 15
803 120 21
804 120 26
805 120 34
806 120 36
807 120 38
808 120 42
809 120 44
810 120 47
811 120 50
812 120 55
813 120 61
814 120 63
815 120 65
816 120 68
817 120 70
818 120 73
819 120 75
820 120 78
821 120 8
822 120 81
823 120 83
824 120 87
825 120 94
826 120 96
827 124 10
828 124 13
829 124 92
830 125 0
831 125 10
832 125 13
833 125 41
834 125 52
835 125 62
836 125 67
837 125 77
838 125 80
839 125 92
840 125 95
841 126 0
842 126 10
843 126 111
844 126 13
845 126 19
846 126 35
847 126 41
848 126 46
849 126 49
850 126 52
851 126 62
852 126 67
853 126 72
854 126 74
855 126 77
856 126 80
857 126 85
858 126 92
859 126 95
860 127 0
861 127 22
862 127 5
863 127 52
864 130 36
865 130 38
866 130 42
867 130 44
868 130 47
869 130 50
870 130 55
871 130 61
872 130 63
873 130 65
874 130 68
875 130 70
876 130 73
877 130 75
878 130 78
879 130 8
880 130 81
881 130 83
882 130 96
883 132 102
884 132 105
885 132 17
886 132 89
887 132 90
888 132 98
889 132 99
890 133 121
891 133 53
892 133 54
893 133 56
894 133 59
895 133 60
896 135 0
897 135 128
898 140 10
899 140 100
900 140 101
901 140 104
902 140 105
903 140 106
904 140 111
905 140 12
906 140 13
907 140 15
908 140 16
909 140 18
910 140 19
911 140 21
912 140 22
913 140 24
914 140 25
915 140 27
916 140 32
917 140 33
918 140 34
919 140 43
920 140 44
921 140 48
922 140 49
923 140 52
924 140 53
925 140 54
926 140 59
927 140 68
928 140 69
929 140 73
930 140 74
931 140 77
932 140 78
933 140 79
934 140 84
935 140 95
936 140 96
937 141 46
938 141 71
939 141 98
940 143 0
941 143 12
942 143 121
943 143 15
944 143 18
945 143 21
946 143 24
947 143 27
948 143 29
949 143 39
950 143 6
951 143 8
952 143 93
953 144 0
954 145 0
955 146 0
956 147 10
957 147 13
958 147 16
959 147 19
960 147 22
961 147 25
962 148 10
963 148 113
964 148 13
965 148 16
966 148 19
967 148 22
968 148 25
969 148 61
970 148 86
971 149 10
972 149 119
973 149 13
974 149 16
975 149 19
976 149 22
977 149 25
978 149 28
979 149 5
980 149 92
981 150 36
982 153 29
983 153 39
984 153 6
985 153 8
986 153 93
987 155 101
988 155 104
989 155 111
990 155 33
991 155 34
992 155 43
993 155 49
994 155 52
995 155 59
996 155 68
997 155 74
998 155 77
999 155 84
1000 155 95
1001 156 105
1002 156 47
1003 156 53
1004 156 72
1005 156 78
1006 156 99
1007 161 0
1008 161 128
1009 162 0
1010 163 0
1011 163 10
1012 163 102
1013 163 12
1014 163 120
1015 163 13
1016 163 24
1017 163 25
1018 163 26
1019 163 29
1020 163 31
1021 163 34
1022 163 51
1023 163 6
1024 163 60
1025 163 62
1026 163 65
1027 163 66
1028 163 70
1029 163 71
1030 163 74
1031 163 75
1032 163 76
1033 163 81
1034 163 92
1035 163 94
1036 163 97
1037 163 99
1038 164 0
1039 164 68
1040 166 103
1041 166 12
1042 166 14
1043 166 16
1044 166 19
1045 166 21
1046 166 29
1047 166 31
1048 166 43
1049 166 49
1050 166 51
1051 166 55
1052 166 90
1053 166 92
1054 166 94
1055 166 97
1056 166 99
1057 170 10
1058 170 101
1059 171 10
1060 171 13
1061 171 28
1062 171 33
1063 171 40
1064 171 50
1065 171 83
1066 171 91
1067 171 96
1068 172 10
1069 172 101
1070 172 110
1071 172 13
1072 172 15
1073 172 18
1074 172 28
1075 172 33
1076 172 50
1077 172 53
1078 172 56
1079 172 89
1080 172 91
1081 172 96
1082 173 40
1083 176 14
1084 176 16
1085 176 19
1086 176 21
1087 176 29
1088 176 31
1089 176 43
1090 176 49
1091 176 51
1092 176 90
1093 176 92
1094 176 94
1095 176 97
1096 176 99
1097 177 34
1098 178 25
1099 178 26
1100 178 6
1101 178 65
1102 178 71
1103 178 74
1104 178 81
1105 179 0
1106 179 120
1107 179 41
1108 179 44
1109 179 47
1110 179 69
1111 179 75
1112 180 0
1113 181 0
1114 182 0
1115 184 128
1116 185 128
1117 186 10
1118 186 100
1119 186 101
1120 186 102
1121 186 104
1122 186 105
1123 186 106
1124 186 108
1125 186 109
1126 186 110
1127 186 112
1128 186 113
1129 186 114
1130 186 12
1131 186 120
1132 186 122
1133 186 128
1134 186 13
1135 186 15
1136 186 40
1137 186 42
1138 186 45
1139 186 47
1140 186 50
1141 186 52
1142 186 6
1143 186 64
1144 186 67
1145 186 68
1146 186 72
1147 186 73
1148 186 76
1149 186 77
1150 186 78
1151 186 83
1152 186 85
1153 186 88
1154 186 90
1155 186 94
1156 186 98
1157 187 128
1158 187 70
1159 189 12
1160 189 14
1161 189 16
1162 189 21
1163 189 29
1164 189 35
1165 189 37
1166 189 40
1167 189 42
1168 189 46
1169 189 50
1170 189 52
1171 189 57
1172 189 63
1173 189 65
1174 189 88
1175 189 90
1176 189 97
1177 189 99
1178 192 17
1179 192 23
1180 192 31
1181 193 10
1182 193 17
1183 193 23
1184 193 31
1185 193 44
1186 193 94
1187 194 10
1188 194 13
1189 194 15
1190 194 17
1191 194 23
1192 194 31
1193 194 39
1194 194 44
1195 194 49
1196 194 54
1197 194 64
1198 194 87
1199 194 94
1200 194 98
1201 195 10
1202 195 116
1203 195 13
1204 195 15
1205 195 17
1206 195 24
1207 195 32
1208 195 34
1209 195 39
1210 195 44
1211 195 49
1212 195 54
1213 195 64
1214 195 87
1215 195 94
1216 195 98
1217 196 17
1218 196 54
1219 196 94
1220 197 0
1221 198 0
1222 199 0
1223 199 14
1224 199 16
1225 199 35
1226 199 37
1227 199 40
1228 199 42
1229 199 50
1230 199 52
1231 199 57
1232 199 63
1233 199 65
1234 199 88
1235 199 90
1236 199 97
1237 199 99
1238 201 101
1239 201 102
1240 201 105
1241 201 106
1242 201 109
1243 201 110
1244 201 113
1245 201 114
1246 201 6
1247 201 67
1248 201 73
1249 201 76
1250 201 83
1251 201 85
1252 202 18
1253 202 19
1254 202 21
1255 202 22
1256 202 23
1257 202 26
1258 202 27
1259 202 29
1260 202 30
1261 202 31
1262 202 55
1263 202 56
1264 202 58
1265 202 61
1266 202 62
1267 202 71
1268 202 77
1269 202 95
1270 202 96
1271 209 10
1272 209 100
1273 209 101
1274 209 102
1275 209 104
1276 209 105
1277 209 106
1278 209 108
1279 209 109
1280 209 110
1281 209 112
1282 209 113
1283 209 114
1284 209 12
1285 209 120
1286 209 122
1287 209 14
1288 209 16
1289 209 18
1290 209 20
1291 209 22
1292 209 24
1293 209 29
1294 209 34
1295 209 36
1296 209 38
1297 209 47
1298 209 49
1299 209 53
1300 209 57
1301 209 64
1302 209 67
1303 209 70
1304 209 71
1305 209 83
1306 209 85
1307 209 91
1308 209 95
1309 209 96
1310 209 97
1311 209 98
1312 212 11
1313 212 13
1314 212 15
1315 212 17
1316 212 19
1317 212 21
1318 212 24
1319 212 29
1320 212 35
1321 212 38
1322 212 41
1323 212 45
1324 212 47
1325 212 49
1326 212 54
1327 212 58
1328 212 62
1329 212 65
1330 212 76
1331 212 8
1332 212 80
1333 212 83
1334 212 85
1335 212 88
1336 212 92
1337 215 0
1338 215 25
1339 215 31
1340 215 51
1341 216 0
1342 216 22
1343 216 25
1344 216 31
1345 216 36
1346 216 51
1347 216 54
1348 216 58
1349 216 73
1350 216 76
1351 216 80
1352 216 90
1353 217 0
1354 217 10
1355 217 12
1356 217 14
1357 217 16
1358 217 18
1359 217 20
1360 217 22
1361 217 25
1362 217 31
1363 217 34
1364 217 36
1365 217 46
1366 217 52
1367 217 56
1368 217 64
1369 217 74
1370 217 78
1371 217 82
1372 218 10
1373 218 116
1374 218 12
1375 218 14
1376 218 16
1377 218 18
1378 218 20
1379 218 22
1380 218 25
1381 218 32
1382 218 34
1383 218 36
1384 218 39
1385 218 46
1386 218 60
1387 218 64
1388 218 82
1389 218 87
1390 218 90
1391 219 25
1392 219 5
1393 222 11
1394 222 13
1395 222 15
1396 222 17
1397 222 19
1398 222 21
1399 222 35
1400 222 47
1401 222 49
1402 222 53
1403 222 57
1404 222 65
1405 222 75
1406 222 79
1407 222 8
1408 222 83
1409 222 85
1410 222 88
1411 224 101
1412 224 102
1413 224 105
1414 224 106
1415 224 109
1416 224 110
1417 224 113
1418 224 114
1419 224 67
1420 224 71
1421 224 96
1422 224 97
1423 224 98
1424 225 0
1425 225 26
1426 225 27
1427 225 29
1428 225 31
1429 232 10
1430 232 100
1431 232 101
1432 232 104
1433 232 105
1434 232 106
1435 232 111
1436 232 36
1437 232 56
1438 232 57
1439 232 63
1440 232 64
1441 232 68
1442 232 69
1443 232 73
1444 232 74
1445 232 79
1446 232 95
1447 232 96
1448 233 66
1449 233 98
1450 235 11
1451 235 121
1452 235 16
1453 235 24
1454 235 32
1455 235 37
1456 235 42
1457 235 50
1458 235 52
1459 235 61
1460 235 8
1461 235 89
1462 235 93
1463 238 12
1464 238 18
1465 238 26
1466 238 38
1467 238 44
1468 238 53
1469 239 12
1470 239 18
1471 239 26
1472 239 29
1473 239 38
1474 239 44
1475 240 10
1476 240 113
1477 240 12
1478 240 18
1479 240 26
1480 240 29
1481 240 36
1482 240 38
1483 240 44
1484 240 81
1485 241 10
1486 241 119
1487 241 12
1488 241 19
1489 241 27
1490 241 29
1491 241 36
1492 241 38
1493 241 45
1494 241 51
1495 241 60
1496 241 87
1497 241 92
1498 242 12
1499 242 29
1500 242 38
1501 242 5
1502 242 53
1503 245 11
1504 245 32
1505 245 37
1506 245 52
1507 245 61
1508 245 8
1509 245 93
1510 247 101
1511 247 104
1512 247 111
1513 247 63
1514 247 69
1515 247 79
1516 247 95
1517 248 105
1518 248 13
1519 248 14
1520 248 16
1521 248 17
1522 248 18
1523 248 21
1524 248 22
1525 248 24
1526 248 25
1527 248 26
1528 248 30
1529 248 31
1530 248 33
1531 248 34
1532 248 39
1533 248 40
1534 248 42
1535 248 43
1536 248 44
1537 248 47
1538 248 48
1539 248 49
1540 248 67
1541 248 73
1542 248 99
1543 250 0
1544 251 0
1545 252 0
1546 253 0
1547 255 10
1548 255 113
1549 255 114
1550 255 12
1551 255 120
1552 255 122
1553 255 14
1554 255 15
1555 255 16
1556 255 17
1557 255 19
1558 255 21
1559 255 24
1560 255 26
1561 255 38
1562 255 6
1563 255 61
1564 255 62
1565 255 72
1566 255 73
1567 255 75
1568 255 87
1569 255 88
1570 255 89
1571 255 90
1572 256 76
1573 258 11
1574 258 13
1575 258 21
1576 258 25
1577 258 27
1578 258 31
1579 258 37
1580 258 39
1581 262 106
1582 262 19
1583 263 10
1584 263 12
1585 263 19
1586 263 24
1587 263 26
1588 263 38
1589 264 10
1590 264 106
1591 264 116
1592 264 12
1593 264 19
1594 264 24
1595 264 26
1596 264 38
1597 264 40
1598 265 28
1599 268 11
1600 268 13
1601 268 25
1602 268 27
1603 268 31
1604 268 37
1605 268 39
1606 270 0
1607 270 114
1608 270 15
1609 270 16
1610 270 17
1611 270 6
1612 270 61
1613 270 87
1614 270 89
1615 271 60
1616 271 71
1617 271 77
1618 271 90
1619 278 10
1620 278 102
1621 278 109
1622 278 12
1623 278 13
1624 278 14
1625 278 34
1626 278 36
1627 278 37
1628 278 40
1629 278 41
1630 278 45
1631 278 46
1632 278 49
1633 278 50
1634 278 51
1635 278 56
1636 278 65
1637 278 66
1638 278 70
1639 278 71
1640 278 74
1641 278 75
1642 278 76
1643 278 81
1644 278 83
1645 278 86
1646 278 87
1647 278 91
1648 278 92
1649 278 95
1650 278 96
1651 278 97
1652 279 43
1653 279 68
1654 279 89
1655 281 11
1656 281 116
1657 281 119
1658 281 121
1659 281 18
1660 281 23
1661 281 29
1662 281 31
1663 281 8
1664 286 10
1665 286 108
1666 286 58
1667 287 0
1668 287 10
1669 287 104
1670 287 108
1671 287 115
1672 287 118
1673 287 16
1674 287 20
1675 287 30
1676 288 0
1677 288 20
1678 288 5
1679 289 0
1680 291 11
1681 291 116
1682 291 119
1683 291 121
1684 291 23
1685 291 29
1686 291 31
1687 291 8
1688 292 109
1689 293 102
1690 293 13
1691 293 14
1692 293 34
1693 293 37
1694 293 40
1695 293 46
1696 293 49
1697 293 56
1698 293 65
1699 293 71
1700 293 74
1701 293 81
1702 293 83
1703 293 86
1704 293 92
1705 293 95
1706 294 22
1707 294 28
1708 294 44
1709 294 50
1710 294 69
1711 294 75
1712 294 90
1713 294 96
1714 301 10
1715 301 101
1716 301 103
1717 301 104
1718 301 105
1719 301 106
1720 301 108
1721 301 12
1722 301 17
1723 301 19
1724 301 24
1725 301 25
1726 301 26
1727 301 29
1728 301 36
1729 301 39
1730 301 40
1731 301 41
1732 301 44
1733 301 45
1734 301 49
1735 301 50
1736 301 53
1737 301 54
1738 301 55
1739 301 60
1740 301 69
1741 301 70
1742 301 74
1743 301 75
1744 301 78
1745 301 79
1746 301 80
1747 301 85
1748 301 87
1749 301 89
1750 301 90
1751 301 91
1752 301 93
1753 301 94
1754 301 95
1755 301 97
1756 301 98
1757 301 99
1758 302 47
1759 302 72
1760 304 107
1761 304 109
1762 304 11
1763 304 113
1764 304 115
1765 304 118
1766 304 120
1767 304 13
1768 304 18
1769 304 23
1770 304 42
1771 304 8
1772 304 92
1773 304 96
1774 306 0
1775 307 101
1776 307 104
1777 307 39
1778 307 89
1779 307 93
1780 308 101
1781 308 104
1782 308 16
1783 308 39
1784 308 89
1785 308 93
1786 309 10
1787 309 102
1788 309 104
1789 309 108
1790 309 12
1791 309 16
1792 309 39
1793 309 62
1794 309 89
1795 309 93
1796 310 10
1797 310 101
1798 310 104
1799 310 108
1800 310 114
1801 310 117
1802 310 12
1803 310 16
1804 310 21
1805 310 39
1806 310 89
1807 310 93
1808 311 110
1809 311 5
1810 314 103
1811 314 107
1812 314 109
1813 314 11
1814 314 113
1815 314 115
1816 314 118
1817 314 120
1818 314 13
1819 314 42
1820 314 8
1821 314 92
1822 314 96
1823 316 25
1824 316 26
1825 316 29
1826 316 44
1827 316 50
1828 316 53
1829 316 60
1830 316 69
1831 316 75
1832 316 78
1833 316 85
1834 316 87
1835 316 98
1836 316 99
1837 317 36
1838 317 48
1839 317 54
1840 317 73
1841 317 79
1842 324 0
1843 324 10
1844 324 100
1845 324 102
1846 324 104
1847 324 114
1848 324 12
1849 324 121
1850 324 16
1851 324 22
1852 324 23
1853 324 24
1854 324 26
1855 324 28
1856 324 30
1857 324 32
1858 324 41
1859 324 43
1860 324 45
1861 324 48
1862 324 49
1863 324 50
1864 324 51
1865 324 53
1866 324 54
1867 324 56
1868 324 60
1869 324 62
1870 324 65
1871 324 66
1872 324 70
1873 324 71
1874 324 74
1875 324 75
1876 324 76
1877 324 81
1878 324 89
1879 324 90
1880 324 91
1881 324 93
1882 324 95
1883 324 96
1884 324 98
1885 325 68
1886 327 11
1887 327 111
1888 327 13
1889 327 17
1890 327 21
1891 327 27
1892 327 33
1893 327 36
1894 327 46
1895 327 59
1896 327 61
1897 327 63
1898 327 7
1899 327 95
1900 327 97
1901 327 99
1902 330 100
1903 330 28
1904 331 100
1905 331 28
1906 331 56
1907 331 93
1908 332 10
1909 332 101
1910 332 103
1911 332 12
1912 332 16
1913 332 26
1914 332 29
1915 332 32
1916 332 45
1917 332 56
1918 332 60
1919 332 62
1920 332 83
1921 332 93
1922 332 96
1923 332 98
1924 333 10
1925 333 100
1926 333 103
1927 333 110
1928 333 12
1929 333 16
1930 333 26
1931 333 28
1932 333 32
1933 333 34
1934 333 37
1935 333 45
1936 333 5
1937 333 56
1938 333 60
1939 333 62
1940 333 93
1941 333 96
1942 333 98
1943 334 18
1944 334 56
1945 337 102
1946 337 11
1947 337 111
1948 337 13
1949 337 17
1950 337 21
1951 337 27
1952 337 30
1953 337 33
1954 337 46
1955 337 59
1956 337 61
1957 337 63
1958 337 97
1959 337 99
1960 338 104
1961 339 114
1962 339 23
1963 339 24
1964 339 48
1965 339 49
1966 339 50
1967 339 51
1968 339 54
1969 339 65
1970 339 71
1971 339 74
1972 339 81
1973 339 90
1974 339 91
1975 340 121
1976 340 57
1977 340 58
1978 340 69
1979 340 75
1980 342 0
1981 347 100
1982 347 102
1983 347 103
1984 347 104
1985 347 11
1986 347 117
1987 347 119
1988 347 15
1989 347 16
1990 347 17
1991 347 20
1992 347 22
1993 347 24
1994 347 25
1995 347 27
1996 347 28
1997 347 30
1998 347 32
1999 347 33
2000 347 34
2001 347 35
2002 347 37
2003 347 39
2004 347 49
2005 347 59
2006 347 61
2007 347 63
2008 347 65
2009 347 66
2010 347 67
2011 347 68
2012 347 70
2013 347 72
2014 347 74
2015 347 76
2016 347 79
2017 347 86
2018 347 89
2019 347 9
2020 347 97
2021 347 99
2022 350 101
2023 350 108
2024 350 112
2025 350 122
2026 350 21
2027 350 24
2028 350 26
2029 350 31
2030 350 38
2031 350 40
2032 350 43
2033 350 47
2034 350 60
2035 350 62
2036 350 71
2037 350 74
2038 350 76
2039 350 90
2040 350 92
2041 350 94
2042 353 63
2043 353 97
2044 354 22
2045 354 63
2046 354 72
2047 354 97
2048 355 100
2049 355 20
2050 355 22
2051 355 25
2052 355 30
2053 355 37
2054 355 39
2055 355 48
2056 355 59
2057 355 61
2058 355 64
2059 355 70
2060 355 72
2061 355 75
2062 355 89
2063 355 98
2064 356 100
2065 356 106
2066 356 113
2067 356 121
2068 356 20
2069 356 22
2070 356 25
2071 356 30
2072 356 37
2073 356 39
2074 356 41
2075 356 48
2076 356 5
2077 356 59
2078 356 61
2079 356 63
2080 356 70
2081 356 72
2082 356 75
2083 356 89
2084 356 91
2085 356 97
2086 357 109
2087 357 44
2088 358 0
2089 359 0
2090 359 128
2091 360 101
2092 360 112
2093 360 122
2094 360 21
2095 360 26
2096 360 31
2097 360 38
2098 360 40
2099 360 47
2100 360 60
2101 360 62
2102 360 65
2103 360 71
2104 360 76
2105 360 90
2106 360 92
2107 360 94
2108 360 99
2109 361 0
2110 362 0
2111 362 103
2112 362 104
2113 362 16
2114 362 17
2115 362 28
2116 362 33
2117 362 34
2118 362 35
2119 362 67
2120 362 68
2121 362 79
2122 363 86
2123 370 103
2124 370 109
2125 370 115
2126 370 121
2127 370 13
2128 370 19
2129 370 25
2130 370 31
2131 370 37
2132 370 43
2133 370 49
2134 370 55
2135 370 61
2136 370 67
2137 370 7
2138 370 73
2139 370 79
2140 370 83
2141 370 84
2142 370 85
2143 370 91
2144 370 97
EOF
